
n_res = 4;
rcap = [53, 45, 76, 79];
rtype = [1, 1, 2, 2];
n_tasks = 50;
modes =  [{1, 2, 3}, {4, 5, 6}, {7, 8, 9}, {10, 11, 12}, {13, 14, 15}, {16, 17, 18}, {19, 20, 21}, {22, 23, 24}, {25, 26, 27}, {28, 29, 30}, {31, 32, 33}, {34, 35, 36}, {37, 38, 39}, {40, 41, 42}, {43, 44, 45}, {46, 47, 48}, {49, 50, 51}, {52, 53, 54}, {55, 56, 57}, {58, 59, 60}, {61, 62, 63}, {64, 65, 66}, {67, 68, 69}, {70, 71, 72}, {73, 74, 75}, {76, 77, 78}, {79, 80, 81}, {82, 83, 84}, {85, 86, 87}, {88, 89, 90}, {91, 92, 93}, {94, 95, 96}, {97, 98, 99}, {100, 101, 102}, {103, 104, 105}, {106, 107, 108}, {109, 110, 111}, {112, 113, 114}, {115, 116, 117}, {118, 119, 120}, {121, 122, 123}, {124, 125, 126}, {127, 128, 129}, {130, 131, 132}, {133, 134, 135}, {136, 137, 138}, {139, 140, 141}, {142, 143, 144}, {145, 146, 147}, {148, 149, 150}];
succ =  [{21, 12, 6, 5}, {26, 25, 23, 20, 19, 17, 15, 13, 12, 11}, {25, 23, 22, 21, 13, 10, 6}, {26, 25, 23, 21, 15, 8}, {33, 29, 28, 25, 23, 16, 15}, {34, 30, 28, 27, 24, 20, 19, 18, 17}, {38, 29, 28, 26, 25, 23, 22, 18, 17}, {33, 29, 28, 24, 22, 20, 12}, {33, 30, 29, 25, 23, 13}, {50, 39, 37, 32, 31, 29, 26, 20}, {41, 39, 38, 32, 30, 29, 24}, {41, 32, 16}, {50, 41, 38, 32, 28, 24}, {39, 33, 31, 30, 29, 20}, {48, 34, 24, 22}, {50, 38, 37, 30, 27}, {50, 49, 48, 47, 39, 35, 32, 31}, {49, 48, 46, 41, 37, 35, 33, 31}, {46, 40, 39, 37, 33, 31, 29}, {49, 48, 46, 41, 38, 36, 35}, {50, 48, 47, 46, 39, 36, 35}, {50, 49, 47, 36, 35, 32}, {48, 46, 41, 39, 36, 35}, {49, 46, 37, 35, 31}, {49, 48, 47, 44, 40, 36, 34}, {49, 48, 47, 44, 40, 36, 34}, {49, 48, 46, 35, 31}, {49, 48, 46, 45, 44, 43, 40, 37}, {49, 48, 47, 45, 44, 43, 42}, {48, 46, 44, 43, 40}, {44, 42, 36}, {46, 45, 44}, {45, 43, 42}, {46, 43, 42}, {43, 40}, {45, 43}, {47, 42}, {44, 42}, {44, 42}, {42}, {47}, {}, {}, {}, {}, {}, {}, {}, {}, {}];
n_opt = 150;
dur = [3, 4, 6, 3, 9, 9, 7, 8, 9, 4, 8, 8, 2, 8, 9, 4, 9, 10, 3, 5, 7, 1, 1, 7, 3, 6, 8, 1, 2, 7, 1, 3, 10, 1, 2, 2, 4, 5, 6, 7, 9, 9, 2, 3, 6, 7, 8, 10, 4, 8, 8, 5, 10, 10, 3, 4, 9, 1, 4, 4, 4, 5, 8, 1, 4, 10, 2, 8, 10, 2, 7, 8, 4, 6, 7, 2, 7, 7, 3, 6, 8, 5, 7, 7, 1, 5, 6, 2, 6, 8, 3, 5, 6, 5, 7, 10, 1, 2, 3, 2, 2, 10, 3, 4, 7, 6, 7, 7, 5, 5, 6, 5, 6, 6, 2, 9, 9, 4, 5, 8, 6, 8, 10, 7, 8, 10, 2, 4, 6, 1, 5, 9, 3, 4, 9, 3, 7, 10, 4, 5, 5, 2, 3, 7, 2, 8, 10, 6, 8, 9];
rreq = [|0, 7, 7, 0, 6, 0, 0, 0, 0, 0, 0, 1, 0, 0, 0, 3, 0, 1, 0, 5, 4, 0, 8, 0, 3, 2, 0, 8, 0, 0, 0, 0, 3, 4, 3, 0, 0, 0, 0, 7, 0, 6, 0, 0, 3, 7, 4, 0, 4, 4, 3, 0, 4, 0, 0, 0, 0, 0, 5, 0, 0, 0, 2, 5, 0, 4, 3, 0, 0, 5, 0, 0, 0, 0, 7, 2, 1, 0, 0, 7, 0, 8, 7, 0, 7, 0, 0, 0, 7, 0, 0, 9, 9, 0, 0, 5, 8, 0, 3, 0, 0, 5, 0, 7, 0, 5, 5, 0, 8, 5, 0, 8, 5, 4, 0, 6, 0, 0, 0, 6, 0, 8, 8, 8, 5, 4, 8, 0, 0, 9, 6, 0, 0, 0, 2, 0, 6, 5, 0, 0, 3, 6, 6, 0, 0, 0, 5, 0, 0, 0
 |4, 0, 0, 6, 0, 3, 3, 3, 3, 6, 6, 0, 7, 3, 2, 0, 6, 0, 8, 0, 0, 10, 0, 6, 0, 0, 5, 0, 10, 10, 5, 5, 0, 0, 0, 3, 1, 1, 1, 0, 3, 0, 7, 7, 0, 0, 0, 8, 0, 0, 0, 7, 0, 7, 7, 7, 7, 6, 0, 3, 10, 10, 0, 0, 9, 0, 0, 4, 3, 0, 2, 2, 6, 5, 0, 0, 0, 2, 5, 0, 3, 0, 0, 4, 0, 1, 1, 10, 0, 2, 8, 0, 0, 3, 3, 0, 0, 5, 0, 10, 5, 0, 5, 0, 3, 0, 0, 7, 0, 0, 3, 0, 0, 0, 5, 0, 4, 7, 6, 0, 6, 0, 0, 0, 0, 0, 0, 9, 8, 0, 0, 5, 8, 6, 0, 5, 0, 0, 8, 8, 0, 0, 0, 6, 7, 4, 0, 3, 1, 1
 |0, 4, 0, 8, 0, 5, 0, 0, 0, 0, 3, 0, 7, 0, 0, 6, 5, 0, 6, 6, 0, 8, 0, 2, 6, 0, 2, 0, 8, 0, 0, 0, 0, 5, 0, 3, 4, 3, 2, 5, 0, 1, 0, 0, 8, 0, 8, 0, 0, 0, 1, 0, 6, 0, 0, 10, 0, 0, 0, 0, 0, 0, 0, 6, 5, 3, 2, 0, 2, 0, 3, 1, 3, 0, 1, 0, 0, 0, 3, 2, 0, 1, 0, 0, 3, 1, 0, 10, 0, 0, 0, 0, 0, 10, 7, 6, 0, 0, 7, 0, 7, 0, 0, 0, 2, 8, 7, 0, 0, 6, 4, 9, 0, 5, 3, 3, 1, 0, 0, 4, 4, 0, 0, 8, 7, 6, 0, 8, 8, 6, 0, 0, 0, 3, 0, 10, 0, 3, 0, 1, 0, 0, 0, 4, 0, 8, 4, 7, 3, 1
 |4, 0, 1, 0, 7, 0, 9, 5, 4, 8, 0, 7, 0, 3, 2, 0, 0, 2, 0, 0, 3, 0, 7, 0, 0, 8, 0, 6, 0, 5, 4, 3, 1, 0, 7, 0, 0, 0, 0, 0, 4, 0, 4, 3, 0, 9, 0, 4, 10, 8, 0, 7, 0, 5, 6, 0, 4, 5, 2, 1, 7, 4, 4, 0, 0, 0, 0, 3, 0, 8, 0, 0, 0, 7, 0, 9, 9, 9, 0, 0, 6, 0, 4, 3, 0, 0, 1, 0, 4, 3, 7, 6, 4, 0, 0, 0, 4, 3, 0, 5, 0, 2, 6, 4, 0, 0, 0, 1, 6, 0, 0, 0, 6, 0, 0, 0, 0, 3, 2, 0, 0, 8, 6, 0, 0, 0, 6, 0, 0, 0, 4, 3, 3, 0, 1, 0, 8, 0, 8, 0, 7, 3, 2, 0, 10, 0, 0, 0, 0, 0|];